NAME : kroE100-R-5-1-a.38359.tour
COMMENT : Length = 38359
COMMENT : Found by LKH-3 [Keld Helsgaun] Tue Jul 30 13:14:56 2024
TYPE : TOUR
DIMENSION : 100
TOUR_SECTION
1
74
21
7
76
63
17
49
56
23
36
51
73
79
71
61
44
42
31
66
13
27
82
70
85
78
53
18
86
94
43
22
33
48
72
81
46
3
98
95
64
62
35
99
50
97
80
57
30
91
55
6
75
87
67
4
11
2
96
77
37
34
100
29
24
19
39
93
92
41
9
10
60
20
15
28
59
58
32
12
88
40
84
45
54
25
65
8
5
90
38
68
52
14
89
16
26
47
69
83
-1
EOF
